/*********************************************
    * Lab01 - FCD_FCR
    * Author: Coso
    * Creation Date: Mar, 2019
    *********************************************/
instance_name = "small_instance_19_FCD_FCR";

d = 2;
r = 3;

SCj = [143 126];
Fj = [1169, 3364];
Dk = [50 48 42];

Cjk = [[54 36 68]
 [44 81 68]];
Fjk = [[522 813 375]
 [328 524 576]];
